c Output_time 26.03.2020 18:13:09_+0100 1585242789945832516
c ** Program information **
c program_name                          "QBRG_debug"
c version                               "0.3.20"
c date                                  "25.3.2020"
c gid_id                                "673970833836058123f633335630c185360d632e"
c author                                "Oliver Kullmann"
c url                                   "https://github.com/OKullmann/oklibrary/blob/master/Satisfiability/Transformers/Generators/Random/QBRG.cpp"
c ** Machine information **
c machine_name                          "chyna-Lenovo-G50-70"
c bogomips                              3791.08
c ** Compilation information **
c compiler_version                      "g++ 7.5.0"
c compilation_date                      "Mar_26_2020 11:16:30"
c compilation_options                   "--std=c++17 -pedantic -fmax-errors=5 -Wall -Wextra -g -D_GLIBCXX_DEBUG"
c NDEBUG                                0
c OPTIMIZE                              0
c ** Parameters **
c command-line                          "./QBRG_debug" "e40 a40 40" "150*1,1|2-2,1|3-3,1" "" "1,t" ""
c output                                "QuBlRaGe_120_150_1585242789941459995.qdimacs"
c options                               "filtered,renamed"
c num_quantifier_blocks                 3
c  quantifier_blocks                    1:e1-40 2:a41-80 3:e81-120
c num_clause-blocks                     1
c  clause-blocks                        150 * {1-40,1,1/2} | {41-80,1,1/2} | {81-120,1,1/2}
c num_e-seeds                           30+2=32
c  e-seeds                              1 0 1 0 4 120 2 40 1 40 0 40 1 150 3 1 1 1 1 2 2 2 1 1 2 3 3 1 1 2 1 1585242789941459567
p cnf 117 150
e 1 2 3 4 5 6 7 8 9 10 11 12 13 14 15 16 17 18 19 20 21 22 23 24 25 26 27 28 29 30 31 32 33 34 35 36 37 38 0
a 39 40 41 42 43 44 45 46 47 48 49 50 51 52 53 54 55 56 57 58 59 60 61 62 63 64 65 66 67 68 69 70 71 72 73 74 75 76 77 0
e 78 79 80 81 82 83 84 85 86 87 88 89 90 91 92 93 94 95 96 97 98 99 100 101 102 103 104 105 106 107 108 109 110 111 112 113 114 115 116 117 0
23 74 -78 0
-33 -51 78 0
-15 62 78 0
19 62 78 0
-28 -54 -79 0
37 39 79 0
1 39 -80 0
29 -49 -80 0
19 52 -80 0
-3 71 80 0
13 73 -81 0
19 75 -81 0
5 -67 81 0
-34 -43 -82 0
28 76 -82 0
-8 -56 82 0
6 70 82 0
32 40 -83 0
33 55 -83 0
25 -60 -83 0
25 -63 -83 0
27 -52 83 0
-24 -49 -84 0
-6 57 -84 0
-2 -48 84 0
10 -41 -85 0
14 41 -85 0
1 -56 -85 0
2 -59 -85 0
10 -61 -85 0
26 -69 -85 0
24 -44 85 0
3 -69 85 0
-28 -48 -86 0
-2 -65 -86 0
-26 45 86 0
-24 -57 -87 0
18 -58 -87 0
23 -77 -87 0
18 60 -88 0
34 -64 -88 0
8 66 -88 0
18 45 88 0
30 54 88 0
-14 -68 88 0
2 -70 -89 0
13 76 -89 0
29 43 89 0
-32 46 89 0
5 66 -90 0
38 -49 90 0
16 -71 90 0
20 -58 91 0
-18 -77 91 0
-23 57 -92 0
-12 69 -92 0
7 41 92 0
24 -60 92 0
-23 65 92 0
29 -70 92 0
-25 41 -93 0
4 -74 93 0
-14 -53 -94 0
2 63 94 0
-3 -64 94 0
-27 -74 94 0
10 -76 94 0
20 73 -95 0
-38 46 95 0
35 -72 95 0
-12 58 -96 0
29 -71 -96 0
-34 40 96 0
-22 -65 96 0
9 66 96 0
-14 -72 96 0
-11 62 -97 0
-23 68 -97 0
-33 44 97 0
-26 -48 -98 0
-9 -51 98 0
31 -47 -99 0
5 54 -99 0
-26 62 -99 0
-20 47 99 0
34 -49 99 0
-22 -55 99 0
34 47 -100 0
17 42 100 0
23 77 100 0
-12 40 -101 0
22 62 -101 0
-9 -51 101 0
8 73 101 0
12 -44 -102 0
-25 -45 -102 0
20 49 -102 0
-28 -72 -102 0
14 -46 102 0
-15 46 102 0
-29 -60 102 0
16 73 102 0
27 -53 -103 0
15 -49 103 0
-4 49 103 0
11 -57 104 0
35 71 104 0
16 45 105 0
-22 50 -106 0
19 -46 106 0
20 47 -107 0
35 -77 107 0
-1 -59 -108 0
-30 73 -108 0
29 49 108 0
6 61 108 0
-2 70 108 0
-13 -72 108 0
21 -57 -109 0
34 76 -109 0
29 56 109 0
13 53 110 0
5 -58 110 0
25 -40 111 0
37 -42 111 0
-31 49 111 0
-11 -50 111 0
35 -52 111 0
-29 -53 111 0
27 -40 -112 0
22 -46 -112 0
-23 -40 112 0
-16 44 -113 0
-15 -71 -113 0
22 51 113 0
-21 56 113 0
-27 -59 113 0
12 44 -114 0
-23 45 -114 0
32 -39 115 0
20 -74 115 0
-14 -47 -116 0
7 61 -116 0
27 -69 -116 0
-33 75 -116 0
13 77 -116 0
-36 44 116 0
-14 49 116 0
35 -52 116 0
-25 -53 -117 0
